results_rootrelaxation/bin012_060_041.srr.sol
solution status: optimal solution found
objective value:                     2.95890410958904
_var703_                            0.458904109589042 	(obj:0)
_var715_                            0.123287671232882 	(obj:0)
_var721_                            0.150684931506843 	(obj:0)
_var727_                            0.369863013698631 	(obj:0)
_var730_                           0.0342465753424699 	(obj:0)
_var742_                            0.410958904109589 	(obj:0)
_var751_                            0.335616438356165 	(obj:0)
_var752_                            0.397260273972597 	(obj:0)
_var755_                           0.0547945205479466 	(obj:0)
_var762_                           0.0479452054794512 	(obj:0)
_var764_                            0.458904109589041 	(obj:0)
_var779_                             0.10958904109589 	(obj:0)
_var789_                            0.541095890410959 	(obj:1)
_var794_                            0.184931506849314 	(obj:0)
_var808_                            0.130136986301371 	(obj:0)
_var809_                             0.10958904109589 	(obj:0)
_var813_                            0.130136986301369 	(obj:0)
_var814_                            0.465753424657529 	(obj:0)
_var816_                            0.171232876712328 	(obj:0)
_var824_                            0.157534246575342 	(obj:0)
_var826_                           0.0342465753424659 	(obj:1)
_var827_                            0.410958904109589 	(obj:1)
_var829_                            0.445205479452061 	(obj:1)
_var831_                              0.2945205479452 	(obj:1)
_var832_                            0.171232876712327 	(obj:0)
_var833_                            0.130136986301371 	(obj:1)
_var843_                           0.0753424657534246 	(obj:1)
_var851_                            0.232876712328764 	(obj:0)
_var853_                            0.287671232876712 	(obj:0)
_var854_                            0.431506849315069 	(obj:0)
_var856_                           0.0273972602739728 	(obj:0)
_var858_                            0.102739726027398 	(obj:1)
_var863_                            0.280821917808223 	(obj:0)
_var866_                           0.0684931506849316 	(obj:0)
_var867_                           0.0273972602739728 	(obj:1)
_var868_                            0.130136986301371 	(obj:0)
_var873_                            0.020547945205476 	(obj:0)
_var875_                           0.0958904109589042 	(obj:1)
_var878_                            0.287671232876712 	(obj:1)
_var883_                            0.157534246575348 	(obj:1)
_var885_                            0.157534246575341 	(obj:0)
_var889_                            0.410958904109589 	(obj:0)
_var896_                            0.253424657534246 	(obj:0)
_var898_                            0.171232876712328 	(obj:1)
_var901_                             0.13698630136987 	(obj:0)
_var903_                            0.191780821917807 	(obj:0)
_var906_                            0.027397260273968 	(obj:1)
_var907_                            0.027397260273974 	(obj:0)
_var908_                            0.109589041095896 	(obj:0)
_var910_                            0.123287671232877 	(obj:0)
_var911_                             0.10958904109589 	(obj:1)
_var912_                           0.0410958904109552 	(obj:0)
_var913_                           0.0958904109589007 	(obj:0)
_var915_                            0.102739726027397 	(obj:0)
_var920_                            0.239726027397263 	(obj:0)
_var923_                           0.0684931506849369 	(obj:0)
_var926_                           0.0479452054794506 	(obj:1)
_var927_                           0.0958904109589028 	(obj:0)
_var928_                           0.0342465753424654 	(obj:0)
