results_rootrelaxation/bin012_060_041.srr.log
SCIP version 8.0.3.5 [precision: 8 byte] [memory: block] [mode: optimized] [LP solver: Soplex 6.0.1.3] [GitHash: 438792519e]
Copyright (c) 2002-2023 Zuse Institute Berlin (ZIB)

External libraries: 
  Readline 8.1         GNU library for command line editing (gnu.org/s/readline)
  Soplex 6.0.1.3       Linear Programming Solver developed at Zuse Institute Berlin (soplex.zib.de) [GitHash: 713be0fe]
  CppAD 20180000.0     Algorithmic Differentiation of C++ algorithms developed by B. Bell (github.com/coin-or/CppAD)
  ZLIB 1.2.11          General purpose compression library by J. Gailly and M. Adler (zlib.net)
  bliss 0.77           Computing Graph Automorphism Groups by T. Junttila and P. Kaski (www.tcs.hut.fi/Software/bliss/)

user parameter file <scip.set> not found - using default parameters

srr/relaxation = TRUE

read problem <instances/bin012_060_041.srr>
============

Original problem: 
original problem has 0 variables (0 bin, 0 int, 0 impl, 0 cont) and 77 constraints

presolving:
presolving (1 rounds: 1 fast, 1 medium, 1 exhaustive):
 0 deleted vars, 0 deleted constraints, 0 added constraints, 0 tightened bounds, 0 added holes, 0 changed sides, 0 changed coefficients
 0 implications, 0 cliques
presolved problem has 0 variables (0 bin, 0 int, 0 impl, 0 cont) and 77 constraints
     77 constraints of type <linear>
Presolving Time: 0.00

 time | node  | left  |LP iter|LP it/n|mem/heur|mdpt |vars |cons |rows |cuts |sepa|confs|strbr|  dualbound   | primalbound  |  gap   | compl. 
  0.0s|     1 |     0 |     1 |     - |   710k |   0 |   1 |  77 |  77 |   0 |  0 |   0 |   0 |      --      |      --      |    Inf | unknown
r 0.0s|     1 |     0 |   782 |     - |simplero|   0 | 665 |  77 |  77 |   0 |  0 |   0 |   0 |      --      | 1.964696e+01 |    Inf | unknown
r 0.0s|     1 |     0 |   802 |     - |simplero|   0 | 676 |  77 |  77 |   0 |  0 |   0 |   0 |      --      | 1.891478e+01 |    Inf | unknown
r 0.0s|     1 |     0 |   826 |     - |simplero|   0 | 687 |  77 |  77 |   0 |  0 |   0 |   0 |      --      | 1.797007e+01 |    Inf | unknown
r 0.1s|     1 |     0 |   884 |     - |simplero|   0 | 698 |  77 |  77 |   0 |  0 |   0 |   0 |      --      | 1.644104e+01 |    Inf | unknown
r 0.1s|     1 |     0 |   931 |     - |simplero|   0 | 709 |  77 |  77 |   0 |  0 |   0 |   0 |      --      | 1.501396e+01 |    Inf | unknown
r 0.1s|     1 |     0 |  1024 |     - |simplero|   0 | 720 |  77 |  77 |   0 |  0 |   0 |   0 |      --      | 1.315050e+01 |    Inf | unknown
r 0.1s|     1 |     0 |  1110 |     - |simplero|   0 | 731 |  77 |  77 |   0 |  0 |   0 |   0 |      --      | 1.064906e+01 |    Inf | unknown
r 0.1s|     1 |     0 |  1154 |     - |simplero|   0 | 742 |  77 |  77 |   0 |  0 |   0 |   0 |      --      | 9.732990e+00 |    Inf | unknown
r 0.1s|     1 |     0 |  1178 |     - |simplero|   0 | 753 |  77 |  77 |   0 |  0 |   0 |   0 |      --      | 9.217781e+00 |    Inf | unknown
r 0.1s|     1 |     0 |  1184 |     - |simplero|   0 | 753 |  77 |  77 |   0 |  0 |   0 |   0 |      --      | 9.186629e+00 |    Inf | unknown
r 0.1s|     1 |     0 |  1188 |     - |simplero|   0 | 753 |  77 |  77 |   0 |  0 |   0 |   0 |      --      | 9.183432e+00 |    Inf | unknown
r 0.1s|     1 |     0 |  1216 |     - |simplero|   0 | 764 |  77 |  77 |   0 |  0 |   0 |   0 |      --      | 8.159990e+00 |    Inf | unknown
r 0.1s|     1 |     0 |  1232 |     - |simplero|   0 | 764 |  77 |  77 |   0 |  0 |   0 |   0 |      --      | 8.081855e+00 |    Inf | unknown
r 0.1s|     1 |     0 |  1234 |     - |simplero|   0 | 764 |  77 |  77 |   0 |  0 |   0 |   0 |      --      | 8.077185e+00 |    Inf | unknown
 time | node  | left  |LP iter|LP it/n|mem/heur|mdpt |vars |cons |rows |cuts |sepa|confs|strbr|  dualbound   | primalbound  |  gap   | compl. 
r 0.1s|     1 |     0 |  1256 |     - |simplero|   0 | 775 |  77 |  77 |   0 |  0 |   0 |   0 |      --      | 7.176221e+00 |    Inf | unknown
r 0.1s|     1 |     0 |  1277 |     - |simplero|   0 | 775 |  77 |  77 |   0 |  0 |   0 |   0 |      --      | 6.861922e+00 |    Inf | unknown
r 0.1s|     1 |     0 |  1293 |     - |simplero|   0 | 775 |  77 |  77 |   0 |  0 |   0 |   0 |      --      | 6.811610e+00 |    Inf | unknown
r 0.1s|     1 |     0 |  1340 |     - |simplero|   0 | 786 |  77 |  77 |   0 |  0 |   0 |   0 |      --      | 6.281655e+00 |    Inf | unknown
r 0.1s|     1 |     0 |  1351 |     - |simplero|   0 | 786 |  77 |  77 |   0 |  0 |   0 |   0 |      --      | 6.241400e+00 |    Inf | unknown
r 0.1s|     1 |     0 |  1383 |     - |simplero|   0 | 797 |  77 |  77 |   0 |  0 |   0 |   0 |      --      | 5.627971e+00 |    Inf | unknown
r 0.1s|     1 |     0 |  1388 |     - |simplero|   0 | 797 |  77 |  77 |   0 |  0 |   0 |   0 |      --      | 5.624807e+00 |    Inf | unknown
r 0.1s|     1 |     0 |  1389 |     - |simplero|   0 | 797 |  77 |  77 |   0 |  0 |   0 |   0 |      --      | 5.623400e+00 |    Inf | unknown
r 0.1s|     1 |     0 |  1417 |     - |simplero|   0 | 808 |  77 |  77 |   0 |  0 |   0 |   0 |      --      | 5.201625e+00 |    Inf | unknown
r 0.1s|     1 |     0 |  1434 |     - |simplero|   0 | 808 |  77 |  77 |   0 |  0 |   0 |   0 |      --      | 5.144836e+00 |    Inf | unknown
r 0.1s|     1 |     0 |  1483 |     - |simplero|   0 | 819 |  77 |  77 |   0 |  0 |   0 |   0 |      --      | 4.564948e+00 |    Inf | unknown
r 0.1s|     1 |     0 |  1495 |     - |simplero|   0 | 819 |  77 |  77 |   0 |  0 |   0 |   0 |      --      | 4.527111e+00 |    Inf | unknown
r 0.1s|     1 |     0 |  1497 |     - |simplero|   0 | 819 |  77 |  77 |   0 |  0 |   0 |   0 |      --      | 4.526490e+00 |    Inf | unknown
r 0.1s|     1 |     0 |  1523 |     - |simplero|   0 | 830 |  77 |  77 |   0 |  0 |   0 |   0 |      --      | 4.278355e+00 |    Inf | unknown
r 0.1s|     1 |     0 |  1538 |     - |simplero|   0 | 830 |  77 |  77 |   0 |  0 |   0 |   0 |      --      | 4.188585e+00 |    Inf | unknown
 time | node  | left  |LP iter|LP it/n|mem/heur|mdpt |vars |cons |rows |cuts |sepa|confs|strbr|  dualbound   | primalbound  |  gap   | compl. 
r 0.1s|     1 |     0 |  1543 |     - |simplero|   0 | 830 |  77 |  77 |   0 |  0 |   0 |   0 |      --      | 4.171236e+00 |    Inf | unknown
r 0.1s|     1 |     0 |  1565 |     - |simplero|   0 | 839 |  77 |  77 |   0 |  0 |   0 |   0 |      --      | 3.915473e+00 |    Inf | unknown
r 0.1s|     1 |     0 |  1597 |     - |simplero|   0 | 850 |  77 |  77 |   0 |  0 |   0 |   0 |      --      | 3.662437e+00 |    Inf | unknown
r 0.1s|     1 |     0 |  1598 |     - |simplero|   0 | 850 |  77 |  77 |   0 |  0 |   0 |   0 |      --      | 3.662253e+00 |    Inf | unknown
r 0.1s|     1 |     0 |  1599 |     - |simplero|   0 | 850 |  77 |  77 |   0 |  0 |   0 |   0 |      --      | 3.662170e+00 |    Inf | unknown
r 0.1s|     1 |     0 |  1628 |     - |simplero|   0 | 861 |  77 |  77 |   0 |  0 |   0 |   0 |      --      | 3.383532e+00 |    Inf | unknown
  0.1s|     1 |     0 |  1635 |     - |  4225k |   0 | 861 |  77 |  77 |   0 |  0 |   0 |   0 |      --      | 3.383532e+00 |    Inf | unknown
r 0.1s|     1 |     0 |  1635 |     - |simplero|   0 | 861 |  77 |  77 |   0 |  0 |   0 |   0 |      --      | 3.377866e+00 |    Inf | unknown
r 0.1s|     1 |     0 |  1653 |     - |simplero|   0 | 871 |  77 |  77 |   0 |  0 |   0 |   0 |      --      | 3.276467e+00 |    Inf | unknown
r 0.1s|     1 |     0 |  1678 |     - |simplero|   0 | 881 |  77 |  77 |   0 |  0 |   0 |   0 |      --      | 3.196432e+00 |    Inf | unknown
r 0.1s|     1 |     0 |  1680 |     - |simplero|   0 | 881 |  77 |  77 |   0 |  0 |   0 |   0 |      --      | 3.195967e+00 |    Inf | unknown
r 0.1s|     1 |     0 |  1695 |     - |simplero|   0 | 891 |  77 |  77 |   0 |  0 |   0 |   0 |      --      | 3.117438e+00 |    Inf | unknown
r 0.1s|     1 |     0 |  1707 |     - |simplero|   0 | 891 |  77 |  77 |   0 |  0 |   0 |   0 |      --      | 3.112064e+00 |    Inf | unknown
r 0.1s|     1 |     0 |  1726 |     - |simplero|   0 | 901 |  77 |  77 |   0 |  0 |   0 |   0 |      --      | 3.057301e+00 |    Inf | unknown
r 0.1s|     1 |     0 |  1744 |     - |simplero|   0 | 907 |  77 |  77 |   0 |  0 |   0 |   0 |      --      | 3.003717e+00 |    Inf | unknown
 time | node  | left  |LP iter|LP it/n|mem/heur|mdpt |vars |cons |rows |cuts |sepa|confs|strbr|  dualbound   | primalbound  |  gap   | compl. 
r 0.1s|     1 |     0 |  1753 |     - |simplero|   0 | 914 |  77 |  77 |   0 |  0 |   0 |   0 |      --      | 2.993103e+00 |    Inf | unknown
r 0.1s|     1 |     0 |  1757 |     - |simplero|   0 | 914 |  77 |  77 |   0 |  0 |   0 |   0 |      --      | 2.992509e+00 |    Inf | unknown
r 0.1s|     1 |     0 |  1774 |     - |simplero|   0 | 920 |  77 |  77 |   0 |  0 |   0 |   0 |      --      | 2.979681e+00 |    Inf | unknown
r 0.1s|     1 |     0 |  1776 |     - |simplero|   0 | 920 |  77 |  77 |   0 |  0 |   0 |   0 |      --      | 2.979434e+00 |    Inf | unknown
r 0.1s|     1 |     0 |  1790 |     - |simplero|   0 | 923 |  77 |  77 |   0 |  0 |   0 |   0 |      --      | 2.961538e+00 |    Inf | unknown
r 0.1s|     1 |     0 |  1794 |     - |simplero|   0 | 924 |  77 |  77 |   0 |  0 |   0 |   0 |      --      | 2.960784e+00 |    Inf | unknown
r 0.1s|     1 |     0 |  1799 |     - |simplero|   0 | 925 |  77 |  77 |   0 |  0 |   0 |   0 |      --      | 2.960483e+00 |    Inf | unknown
r 0.1s|     1 |     0 |  1806 |     - |simplero|   0 | 928 |  77 |  77 |   0 |  0 |   0 |   0 |      --      | 2.959596e+00 |    Inf | unknown
r 0.1s|     1 |     0 |  1812 |     - |simplero|   0 | 929 |  77 |  77 |   0 |  0 |   0 |   0 |      --      | 2.958904e+00 |    Inf | unknown
  0.1s|     1 |     0 |  1812 |     - |  4444k |   0 | 929 |  77 |  77 |   0 |  0 |   0 |   0 | 2.958904e+00 | 2.958904e+00 |   0.00%| unknown
  0.1s|     1 |     0 |  1812 |     - |  4444k |   0 | 929 |  77 |  77 |   0 |  0 |   0 |   0 | 2.958904e+00 | 2.958904e+00 |   0.00%| unknown

SCIP Status        : problem is solved [optimal solution found]
Solving Time (sec) : 0.11
Solving Nodes      : 1
Primal Bound       : +2.95890410958904e+00 (52 solutions)
Dual Bound         : +2.95890410958904e+00
Gap                : 0.00 %

written transformed problem to file <results_rootrelaxation/bin012_060_041.srr.lp>
written transformed problem to file <results_rootrelaxation/bin012_060_041.srr.cip>


SCIP version 8.0.3.5 [precision: 8 byte] [memory: block] [mode: optimized] [LP solver: Soplex 6.0.1.3] [GitHash: 438792519e]
Copyright (c) 2002-2023 Zuse Institute Berlin (ZIB)

External libraries: 
  Readline 8.1         GNU library for command line editing (gnu.org/s/readline)
  Soplex 6.0.1.3       Linear Programming Solver developed at Zuse Institute Berlin (soplex.zib.de) [GitHash: 713be0fe]
  CppAD 20180000.0     Algorithmic Differentiation of C++ algorithms developed by B. Bell (github.com/coin-or/CppAD)
  ZLIB 1.2.11          General purpose compression library by J. Gailly and M. Adler (zlib.net)
  bliss 0.77           Computing Graph Automorphism Groups by T. Junttila and P. Kaski (www.tcs.hut.fi/Software/bliss/)

user parameter file <scip.set> not found - using default parameters

srr/relaxation = TRUE

read problem <instances/bin012_060_041.srr>
============

Original problem: 
original problem has 0 variables (0 bin, 0 int, 0 impl, 0 cont) and 77 constraints

presolving:
presolving (1 rounds: 1 fast, 1 medium, 1 exhaustive):
 0 deleted vars, 0 deleted constraints, 0 added constraints, 0 tightened bounds, 0 added holes, 0 changed sides, 0 changed coefficients
 0 implications, 0 cliques
presolved problem has 0 variables (0 bin, 0 int, 0 impl, 0 cont) and 77 constraints
     77 constraints of type <linear>
Presolving Time: 0.00

 time | node  | left  |LP iter|LP it/n|mem/heur|mdpt |vars |cons |rows |cuts |sepa|confs|strbr|  dualbound   | primalbound  |  gap   | compl. 
  0.0s|     1 |     0 |     1 |     - |   710k |   0 |   1 |  77 |  77 |   0 |  0 |   0 |   0 |      --      |      --      |    Inf | unknown
r 0.0s|     1 |     0 |   782 |     - |simplero|   0 | 665 |  77 |  77 |   0 |  0 |   0 |   0 |      --      | 1.964696e+01 |    Inf | unknown
r 0.0s|     1 |     0 |   802 |     - |simplero|   0 | 676 |  77 |  77 |   0 |  0 |   0 |   0 |      --      | 1.891478e+01 |    Inf | unknown
r 0.0s|     1 |     0 |   826 |     - |simplero|   0 | 687 |  77 |  77 |   0 |  0 |   0 |   0 |      --      | 1.797007e+01 |    Inf | unknown
r 0.0s|     1 |     0 |   884 |     - |simplero|   0 | 698 |  77 |  77 |   0 |  0 |   0 |   0 |      --      | 1.644104e+01 |    Inf | unknown
r 0.1s|     1 |     0 |   931 |     - |simplero|   0 | 709 |  77 |  77 |   0 |  0 |   0 |   0 |      --      | 1.501396e+01 |    Inf | unknown
r 0.1s|     1 |     0 |  1024 |     - |simplero|   0 | 720 |  77 |  77 |   0 |  0 |   0 |   0 |      --      | 1.315050e+01 |    Inf | unknown
r 0.1s|     1 |     0 |  1110 |     - |simplero|   0 | 731 |  77 |  77 |   0 |  0 |   0 |   0 |      --      | 1.064906e+01 |    Inf | unknown
r 0.1s|     1 |     0 |  1154 |     - |simplero|   0 | 742 |  77 |  77 |   0 |  0 |   0 |   0 |      --      | 9.732990e+00 |    Inf | unknown
r 0.1s|     1 |     0 |  1178 |     - |simplero|   0 | 753 |  77 |  77 |   0 |  0 |   0 |   0 |      --      | 9.217781e+00 |    Inf | unknown
r 0.1s|     1 |     0 |  1184 |     - |simplero|   0 | 753 |  77 |  77 |   0 |  0 |   0 |   0 |      --      | 9.186629e+00 |    Inf | unknown
r 0.1s|     1 |     0 |  1188 |     - |simplero|   0 | 753 |  77 |  77 |   0 |  0 |   0 |   0 |      --      | 9.183432e+00 |    Inf | unknown
r 0.1s|     1 |     0 |  1216 |     - |simplero|   0 | 764 |  77 |  77 |   0 |  0 |   0 |   0 |      --      | 8.159990e+00 |    Inf | unknown
r 0.1s|     1 |     0 |  1232 |     - |simplero|   0 | 764 |  77 |  77 |   0 |  0 |   0 |   0 |      --      | 8.081855e+00 |    Inf | unknown
r 0.1s|     1 |     0 |  1234 |     - |simplero|   0 | 764 |  77 |  77 |   0 |  0 |   0 |   0 |      --      | 8.077185e+00 |    Inf | unknown
 time | node  | left  |LP iter|LP it/n|mem/heur|mdpt |vars |cons |rows |cuts |sepa|confs|strbr|  dualbound   | primalbound  |  gap   | compl. 
r 0.1s|     1 |     0 |  1256 |     - |simplero|   0 | 775 |  77 |  77 |   0 |  0 |   0 |   0 |      --      | 7.176221e+00 |    Inf | unknown
r 0.1s|     1 |     0 |  1277 |     - |simplero|   0 | 775 |  77 |  77 |   0 |  0 |   0 |   0 |      --      | 6.861922e+00 |    Inf | unknown
r 0.1s|     1 |     0 |  1293 |     - |simplero|   0 | 775 |  77 |  77 |   0 |  0 |   0 |   0 |      --      | 6.811610e+00 |    Inf | unknown
r 0.1s|     1 |     0 |  1340 |     - |simplero|   0 | 786 |  77 |  77 |   0 |  0 |   0 |   0 |      --      | 6.281655e+00 |    Inf | unknown
r 0.1s|     1 |     0 |  1351 |     - |simplero|   0 | 786 |  77 |  77 |   0 |  0 |   0 |   0 |      --      | 6.241400e+00 |    Inf | unknown
r 0.1s|     1 |     0 |  1383 |     - |simplero|   0 | 797 |  77 |  77 |   0 |  0 |   0 |   0 |      --      | 5.627971e+00 |    Inf | unknown
r 0.1s|     1 |     0 |  1388 |     - |simplero|   0 | 797 |  77 |  77 |   0 |  0 |   0 |   0 |      --      | 5.624807e+00 |    Inf | unknown
r 0.1s|     1 |     0 |  1389 |     - |simplero|   0 | 797 |  77 |  77 |   0 |  0 |   0 |   0 |      --      | 5.623400e+00 |    Inf | unknown
r 0.1s|     1 |     0 |  1417 |     - |simplero|   0 | 808 |  77 |  77 |   0 |  0 |   0 |   0 |      --      | 5.201625e+00 |    Inf | unknown
r 0.1s|     1 |     0 |  1434 |     - |simplero|   0 | 808 |  77 |  77 |   0 |  0 |   0 |   0 |      --      | 5.144836e+00 |    Inf | unknown
r 0.1s|     1 |     0 |  1483 |     - |simplero|   0 | 819 |  77 |  77 |   0 |  0 |   0 |   0 |      --      | 4.564948e+00 |    Inf | unknown
r 0.1s|     1 |     0 |  1495 |     - |simplero|   0 | 819 |  77 |  77 |   0 |  0 |   0 |   0 |      --      | 4.527111e+00 |    Inf | unknown
r 0.1s|     1 |     0 |  1497 |     - |simplero|   0 | 819 |  77 |  77 |   0 |  0 |   0 |   0 |      --      | 4.526490e+00 |    Inf | unknown
r 0.1s|     1 |     0 |  1523 |     - |simplero|   0 | 830 |  77 |  77 |   0 |  0 |   0 |   0 |      --      | 4.278355e+00 |    Inf | unknown
r 0.1s|     1 |     0 |  1538 |     - |simplero|   0 | 830 |  77 |  77 |   0 |  0 |   0 |   0 |      --      | 4.188585e+00 |    Inf | unknown
 time | node  | left  |LP iter|LP it/n|mem/heur|mdpt |vars |cons |rows |cuts |sepa|confs|strbr|  dualbound   | primalbound  |  gap   | compl. 
r 0.1s|     1 |     0 |  1543 |     - |simplero|   0 | 830 |  77 |  77 |   0 |  0 |   0 |   0 |      --      | 4.171236e+00 |    Inf | unknown
r 0.1s|     1 |     0 |  1565 |     - |simplero|   0 | 839 |  77 |  77 |   0 |  0 |   0 |   0 |      --      | 3.915473e+00 |    Inf | unknown
r 0.1s|     1 |     0 |  1597 |     - |simplero|   0 | 850 |  77 |  77 |   0 |  0 |   0 |   0 |      --      | 3.662437e+00 |    Inf | unknown
r 0.1s|     1 |     0 |  1598 |     - |simplero|   0 | 850 |  77 |  77 |   0 |  0 |   0 |   0 |      --      | 3.662253e+00 |    Inf | unknown
r 0.1s|     1 |     0 |  1599 |     - |simplero|   0 | 850 |  77 |  77 |   0 |  0 |   0 |   0 |      --      | 3.662170e+00 |    Inf | unknown
r 0.1s|     1 |     0 |  1628 |     - |simplero|   0 | 861 |  77 |  77 |   0 |  0 |   0 |   0 |      --      | 3.383532e+00 |    Inf | unknown
  0.1s|     1 |     0 |  1635 |     - |  4225k |   0 | 861 |  77 |  77 |   0 |  0 |   0 |   0 |      --      | 3.383532e+00 |    Inf | unknown
r 0.1s|     1 |     0 |  1635 |     - |simplero|   0 | 861 |  77 |  77 |   0 |  0 |   0 |   0 |      --      | 3.377866e+00 |    Inf | unknown
r 0.1s|     1 |     0 |  1653 |     - |simplero|   0 | 871 |  77 |  77 |   0 |  0 |   0 |   0 |      --      | 3.276467e+00 |    Inf | unknown
r 0.1s|     1 |     0 |  1678 |     - |simplero|   0 | 881 |  77 |  77 |   0 |  0 |   0 |   0 |      --      | 3.196432e+00 |    Inf | unknown
r 0.1s|     1 |     0 |  1680 |     - |simplero|   0 | 881 |  77 |  77 |   0 |  0 |   0 |   0 |      --      | 3.195967e+00 |    Inf | unknown
r 0.1s|     1 |     0 |  1695 |     - |simplero|   0 | 891 |  77 |  77 |   0 |  0 |   0 |   0 |      --      | 3.117438e+00 |    Inf | unknown
r 0.1s|     1 |     0 |  1707 |     - |simplero|   0 | 891 |  77 |  77 |   0 |  0 |   0 |   0 |      --      | 3.112064e+00 |    Inf | unknown
r 0.1s|     1 |     0 |  1726 |     - |simplero|   0 | 901 |  77 |  77 |   0 |  0 |   0 |   0 |      --      | 3.057301e+00 |    Inf | unknown
r 0.1s|     1 |     0 |  1744 |     - |simplero|   0 | 907 |  77 |  77 |   0 |  0 |   0 |   0 |      --      | 3.003717e+00 |    Inf | unknown
 time | node  | left  |LP iter|LP it/n|mem/heur|mdpt |vars |cons |rows |cuts |sepa|confs|strbr|  dualbound   | primalbound  |  gap   | compl. 
r 0.1s|     1 |     0 |  1753 |     - |simplero|   0 | 914 |  77 |  77 |   0 |  0 |   0 |   0 |      --      | 2.993103e+00 |    Inf | unknown
r 0.1s|     1 |     0 |  1757 |     - |simplero|   0 | 914 |  77 |  77 |   0 |  0 |   0 |   0 |      --      | 2.992509e+00 |    Inf | unknown
r 0.1s|     1 |     0 |  1774 |     - |simplero|   0 | 920 |  77 |  77 |   0 |  0 |   0 |   0 |      --      | 2.979681e+00 |    Inf | unknown
r 0.1s|     1 |     0 |  1776 |     - |simplero|   0 | 920 |  77 |  77 |   0 |  0 |   0 |   0 |      --      | 2.979434e+00 |    Inf | unknown
r 0.1s|     1 |     0 |  1790 |     - |simplero|   0 | 923 |  77 |  77 |   0 |  0 |   0 |   0 |      --      | 2.961538e+00 |    Inf | unknown
r 0.1s|     1 |     0 |  1794 |     - |simplero|   0 | 924 |  77 |  77 |   0 |  0 |   0 |   0 |      --      | 2.960784e+00 |    Inf | unknown
r 0.1s|     1 |     0 |  1799 |     - |simplero|   0 | 925 |  77 |  77 |   0 |  0 |   0 |   0 |      --      | 2.960483e+00 |    Inf | unknown
r 0.1s|     1 |     0 |  1806 |     - |simplero|   0 | 928 |  77 |  77 |   0 |  0 |   0 |   0 |      --      | 2.959596e+00 |    Inf | unknown
r 0.1s|     1 |     0 |  1812 |     - |simplero|   0 | 929 |  77 |  77 |   0 |  0 |   0 |   0 |      --      | 2.958904e+00 |    Inf | unknown
  0.1s|     1 |     0 |  1812 |     - |  4444k |   0 | 929 |  77 |  77 |   0 |  0 |   0 |   0 | 2.958904e+00 | 2.958904e+00 |   0.00%| unknown
  0.1s|     1 |     0 |  1812 |     - |  4444k |   0 | 929 |  77 |  77 |   0 |  0 |   0 |   0 | 2.958904e+00 | 2.958904e+00 |   0.00%| unknown

SCIP Status        : problem is solved [optimal solution found]
Solving Time (sec) : 0.11
Solving Nodes      : 1
Primal Bound       : +2.95890410958904e+00 (52 solutions)
Dual Bound         : +2.95890410958904e+00
Gap                : 0.00 %

written transformed problem to file <results_rootrelaxation/bin012_060_041.srr.lp>
written transformed problem to file <results_rootrelaxation/bin012_060_041.srr.cip>

written solution information to file <results_rootrelaxation/bin012_060_041.srr.sol>



